Problem:    
Rows:       256
Columns:    89 (72 integer, 72 binary)
Non-zeros:  800
Status:     INTEGER OPTIMAL
Objective:  value = 91.758479 (MINimum)

   No.   Row name        Activity     Lower bound   Upper bound
------ ------------    ------------- ------------- -------------
     1 r.5                   1091.76             0               
     2 r.6                  -979.497      -980.596               
     3 r.7                   91.7585             0               
     4 r.8                     27.03      -978.758               
     5 r.9                   91.7585             0               
     6 r.10                  70.5173       -977.83               
     7 r.11                  1091.76             0               
     8 r.12                 -929.483      -977.529               
     9 r.13                  1091.76             0               
    10 r.14                 -929.483      -966.847               
    11 r.15                  91.7585             0               
    12 r.16                  70.5173      -965.838               
    13 r.17                  1091.76             0               
    14 r.18                 -962.636      -983.139               
    15 r.19                  91.7585             0               
    16 r.20                  37.3642      -981.222               
    17 r.21                  91.7585             0               
    18 r.22                 -974.843      -975.943               
    19 r.23                  1091.76             0               
    20 r.24                  -972.97      -977.256               
    21 r.25                  1091.76             0               
    22 r.26                   -998.9        -998.9               
    23 r.27                  91.7585             0               
    24 r.28                   1.0996      -985.846               
    25 r.29                  91.7585             0               
    26 r.30                  91.7585        -927.2               
    27 r.31                  1091.76             0               
    28 r.32                 -951.954      -978.984               
    29 r.33                  91.7585             0               
    30 r.34                  91.7585      -929.614               
    31 r.35                  1091.76             0               
    32 r.36                 -908.242      -978.759               
    33 r.37                        1             1             = 
    34 r.38                        1             1             = 
    35 r.39                        1             1             = 
    36 r.40                        1             1             = 
    37 r.41                        1             1             = 
    38 r.42                        1             1             = 
    39 r.43                        1             1             = 
    40 r.44                        1             1             = 
    41 r.45                     1001             2               
    42 r.46                    -1001         -1001               
    43 r.47                  2050.01       -977.83               
    44 r.48                     1001             2               
    45 r.49                    -1001         -1001               
    46 r.50                  2043.49      -977.529               
    47 r.51                        2             2               
    48 r.52                       -2         -1001               
    49 r.53                 -949.986      -966.847               
    50 r.54                     1000             2               
    51 r.55                    -1000         -1001               
    52 r.56                  2043.49      -965.838               
    53 r.57                        2             2               
    54 r.58                       -2         -1001               
    55 r.59                 -983.139      -983.139               
    56 r.60                     1000             2               
    57 r.61                    -1000         -1001               
    58 r.62                  2010.33      -981.222               
    59 r.63                     1001             2               
    60 r.64                    -1001         -1001               
    61 r.65                  1004.65      -975.943               
    62 r.66                     1001             2               
    63 r.67                    -1001         -1001               
    64 r.68                     2000      -977.256               
    65 r.69                 -980.596      -980.596               
    66 r.70                  25.9304      -978.758               
    67 r.71                 -980.596      -980.596               
    68 r.72                  25.9304      -978.758               
    69 r.73                  71.2552        -927.2               
    70 r.74                 -972.457      -978.984               
    71 r.75                  64.7284        -927.2               
    72 r.76                 -978.984      -978.984               
    73 r.77                     1001             2               
    74 r.78                    -1001         -1001               
    75 r.79                  2071.26      -929.614               
    76 r.80                     1001             2               
    77 r.81                    -1001         -1001               
    78 r.82                  2064.73      -978.759               
    79 r.83                     1001             2               
    80 r.84                    -1001         -1001               
    81 r.85                  1949.99       19.4037               
    82 r.86                     1001             2               
    83 r.87                    -1001         -1001               
    84 r.88                  1956.51       21.2416               
    85 r.89                     1001             2               
    86 r.90                    -1001         -1001               
    87 r.91                     2000      -966.847               
    88 r.92                     1001             2               
    89 r.93                    -1001         -1001               
    90 r.94                     2000      -965.838               
    91 r.95                     1001             2               
    92 r.96                    -1001         -1001               
    93 r.97                  1966.85      -983.139               
    94 r.98                     1001             2               
    95 r.99                    -1001         -1001               
    96 r.100                 1966.85      -981.222               
    97 r.101                    1000             2               
    98 r.102                   -1000         -1001               
    99 r.103                 954.639      -975.943               
   100 r.104                       2             2               
   101 r.105                      -2         -1001               
   102 r.106                -43.4873      -977.256               
   103 r.107                 69.4177       -977.83               
   104 r.108                -930.582      -977.529               
   105 r.109                 69.4177       -977.83               
   106 r.110                -930.582      -977.529               
   107 r.111                    1000             2               
   108 r.112                   -1000         -1001               
   109 r.113                 2021.24        -927.2               
   110 r.114                       2             2               
   111 r.115                      -2         -1001               
   112 r.116                -22.4708      -978.984               
   113 r.117                 21.2412      -929.614               
   114 r.118                -978.759      -978.759               
   115 r.119                 21.2412      -929.614               
   116 r.120                -978.759      -978.759               
   117 r.121                       2             2               
   118 r.122                      -2         -1001               
   119 r.123                 949.986       19.4037               
   120 r.124                    1000             2               
   121 r.125                   -1000         -1001               
   122 r.126                 1956.51       21.2416               
   123 r.127                    1001             2               
   124 r.128                   -1001         -1001               
   125 r.129                    2000       22.1697               
   126 r.130                    1001             2               
   127 r.131                   -1001         -1001               
   128 r.132                    2000       22.4708               
   129 r.133                -966.847      -966.847               
   130 r.134                 33.1531      -965.838               
   131 r.135                -966.847      -966.847               
   132 r.136                 33.1531      -965.838               
   133 r.137                    1001             2               
   134 r.138                   -1001         -1001               
   135 r.139                 954.639      -975.943               
   136 r.140                    1001             2               
   137 r.141                   -1001         -1001               
   138 r.142                 1956.51      -977.256               
   139 r.143                -930.582      -966.847               
   140 r.144                 69.4177      -965.838               
   141 r.145                -930.582      -966.847               
   142 r.146                 69.4177      -965.838               
   143 r.147                    1001             2               
   144 r.148                   -1001         -1001               
   145 r.149                 2021.24        -927.2               
   146 r.150                    1001             2               
   147 r.151                   -1001         -1001               
   148 r.152                 1977.53      -978.984               
   149 r.153                 21.2412      -929.614               
   150 r.154                -978.759      -978.759               
   151 r.155                 21.2412      -929.614               
   152 r.156                -978.759      -978.759               
   153 r.157                       2             2               
   154 r.158                      -2         -1001               
   155 r.159                 983.139       19.4037               
   156 r.160                    1000             2               
   157 r.161                   -1000         -1001               
   158 r.162                 1989.67       21.2416               
   159 r.163                    1001             2               
   160 r.164                   -1001         -1001               
   161 r.165                 2033.15       22.1697               
   162 r.166                    1001             2               
   163 r.167                   -1001         -1001               
   164 r.168                 2033.15       22.4708               
   165 r.169                    1001             2               
   166 r.170                   -1001         -1001               
   167 r.171                 987.792      -975.943               
   168 r.172                    1001             2               
   169 r.173                   -1001         -1001               
   170 r.174                 1989.67      -977.256               
   171 r.175                -963.735      -983.139               
   172 r.176                 36.2646      -981.222               
   173 r.177                -963.735      -983.139               
   174 r.178                 36.2646      -981.222               
   175 r.179                    1001             2               
   176 r.180                   -1001         -1001               
   177 r.181                 2054.39        -927.2               
   178 r.182                    1001             2               
   179 r.183                   -1001         -1001               
   180 r.184                 2010.68      -978.984               
   181 r.185                 54.3943      -929.614               
   182 r.186                -945.606      -978.759               
   183 r.187                 54.3943      -929.614               
   184 r.188                -945.606      -978.759               
   185 r.189                    1001             2               
   186 r.190                   -1001         -1001               
   187 r.191                 2995.35       19.4037               
   188 r.192                    1001             2               
   189 r.193                   -1001         -1001               
   190 r.194                    2000       21.2416               
   191 r.195                    1000             2               
   192 r.196                   -1000         -1001               
   193 r.197                 3045.36       22.1697               
   194 r.198                       2             2               
   195 r.199                      -2         -1001               
   196 r.200                 43.4873       22.4708               
   197 r.201                    1001             2               
   198 r.202                   -1001         -1001               
   199 r.203                 3045.36       33.1531               
   200 r.204                    1001             2               
   201 r.205                   -1001         -1001               
   202 r.206                 2043.49       34.1624               
   203 r.207                    1001             2               
   204 r.208                   -1001         -1001               
   205 r.209                 3012.21       16.8609               
   206 r.210                    1001             2               
   207 r.211                   -1001         -1001               
   208 r.212                 2010.33       18.7784               
   209 r.213                -975.943      -975.943               
   210 r.214                 -974.07      -977.256               
   211 r.215                -975.943      -975.943               
   212 r.216                 -974.07      -977.256               
   213 r.217                  1066.6        -927.2               
   214 r.218                 22.8899      -978.984               
   215 r.219                 64.7284        -927.2               
   216 r.220                -978.984      -978.984               
   217 r.221                  1066.6      -929.614               
   218 r.222                  66.602      -978.759               
   219 r.223                 64.7284      -929.614               
   220 r.224                -935.272      -978.759               
   221 r.225                    1000             2               
   222 r.226                   -1000         -1001               
   223 r.227                 1978.76       22.1697               
   224 r.228                       2             2               
   225 r.229                      -2         -1001               
   226 r.230                 22.4708       22.4708               
   227 r.231                    1001             2               
   228 r.232                   -1001         -1001               
   229 r.233                 1978.76       33.1531               
   230 r.234                    1001             2               
   231 r.235                   -1001         -1001               
   232 r.236                 2022.47       34.1624               
   233 r.237                    1001             2               
   234 r.238                   -1001         -1001               
   235 r.239                 1945.61       16.8609               
   236 r.240                    1001             2               
   237 r.241                   -1001         -1001               
   238 r.242                 1989.32       18.7784               
   239 r.243                    1000             2               
   240 r.244                   -1000         -1001               
   241 r.245                    2000      -929.614               
   242 r.246                       2             2               
   243 r.247                      -2         -1001               
   244 r.248                -956.288      -978.759               
   245 r.249                    1001             2               
   246 r.250                   -1001         -1001               
   247 r.251                 1928.74       19.4037               
   248 r.252                    1001             2               
   249 r.253                   -1001         -1001               
   250 r.254                 1935.27       21.2416               
   251 r.255                    1000             2               
   252 r.256                   -1000         -1001               
   253 r.257                    2000       72.8003               
   254 r.258                       2             2               
   255 r.259                      -2         -1001               
   256 r.260                 956.288       21.0164               

   No. Column name       Activity     Lower bound   Upper bound
------ ------------    ------------- ------------- -------------
     1 tt                    91.7585             0               
     2 s_1_1        *              1             0             1 
     3 t_1_1                 71.2552             0               
     4 s_2_1        *              0             0             1 
     5 t_2_1                 64.7284             0               
     6 s_1_2        *              0             0             1 
     7 t_1_2                 21.2412             0               
     8 s_2_2        *              1             0             1 
     9 t_2_2                 21.2412             0               
    10 s_1_3        *              1             0             1 
    11 t_1_3                 21.2412             0               
    12 s_2_3        *              0             0             1 
    13 t_2_3                 21.2412             0               
    14 s_1_4        *              1             0             1 
    15 t_1_4                 54.3943             0               
    16 s_2_4        *              0             0             1 
    17 t_2_4                 54.3943             0               
    18 s_1_5        *              0             0             1 
    19 t_1_5                  1066.6             0               
    20 s_2_5        *              1             0             1 
    21 t_2_5                 64.7284             0               
    22 s_1_6        *              1             0             1 
    23 t_1_6                 90.6589             0               
    24 s_2_6        *              0             0             1 
    25 t_2_6                 90.6589             0               
    26 s_1_7        *              0             0             1 
    27 t_1_7                       0             0               
    28 s_2_7        *              1             0             1 
    29 t_2_7                  43.712             0               
    30 s_1_8        *              0             0             1 
    31 t_1_8                       0             0               
    32 s_2_8        *              1             0             1 
    33 t_2_8                       0             0               
    34 r_1_1_2      *              1             0             1 
    35 u_1_1_2      *              0             0             1 
    36 r_2_1_2      *              1             0             1 
    37 u_2_1_2      *              0             0             1 
    38 r_1_1_3      *              0             0             1 
    39 u_1_1_3      *              1             0             1 
    40 r_2_1_3      *              1             0             1 
    41 u_2_1_3      *              0             0             1 
    42 r_1_1_4      *              0             0             1 
    43 u_1_1_4      *              1             0             1 
    44 r_2_1_4      *              1             0             1 
    45 u_2_1_4      *              0             0             1 
    46 r_1_1_5      *              1             0             1 
    47 u_1_1_5      *              0             0             1 
    48 r_2_1_5      *              1             0             1 
    49 u_2_1_5      *              0             0             1 
    50 r_1_1_8      *              1             0             1 
    51 u_1_1_8      *              0             0             1 
    52 r_2_1_8      *              1             0             1 
    53 u_2_1_8      *              0             0             1 
    54 r_1_2_3      *              1             0             1 
    55 u_1_2_3      *              0             0             1 
    56 r_2_2_3      *              1             0             1 
    57 u_2_2_3      *              0             0             1 
    58 r_1_2_4      *              1             0             1 
    59 u_1_2_4      *              0             0             1 
    60 r_2_2_4      *              1             0             1 
    61 u_2_2_4      *              0             0             1 
    62 r_1_2_5      *              1             0             1 
    63 u_1_2_5      *              0             0             1 
    64 r_2_2_5      *              0             0             1 
    65 u_2_2_5      *              0             0             1 
    66 r_1_2_7      *              1             0             1 
    67 u_1_2_7      *              0             0             1 
    68 r_2_2_7      *              0             0             1 
    69 u_2_2_7      *              0             0             1 
    70 r_1_3_5      *              1             0             1 
    71 u_1_3_5      *              0             0             1 
    72 r_2_3_5      *              1             0             1 
    73 u_2_3_5      *              0             0             1 
    74 r_1_3_7      *              1             0             1 
    75 u_1_3_7      *              0             0             1 
    76 r_2_3_7      *              1             0             1 
    77 u_2_3_7      *              0             0             1 
    78 r_1_4_5      *              1             0             1 
    79 u_1_4_5      *              0             0             1 
    80 r_2_4_5      *              1             0             1 
    81 u_2_4_5      *              0             0             1 
    82 r_1_4_7      *              1             0             1 
    83 u_1_4_7      *              0             0             1 
    84 r_2_4_7      *              1             0             1 
    85 u_2_4_7      *              0             0             1 
    86 r_1_7_8      *              1             0             1 
    87 u_1_7_8      *              0             0             1 
    88 r_2_7_8      *              0             0             1 
    89 u_2_7_8      *              1             0             1 

Integer feasibility conditions:

KKT.PE: max.abs.err = 2.27e-13 on row 20
        max.rel.err = 1.07e-16 on row 20
        High quality

KKT.PB: max.abs.err = 1.14e-13 on row 65
        max.rel.err = 1.16e-16 on row 209
        High quality

End of output
